certificates/rado_a5_c9_N8.drat
-7 -8 0
d -7 -2 -8 0
2 -8 0
-8 0
-2 0
1 0
3 0
7 0
-5 0
0
